p edge 25 63
e 1 15
e 1 10
e 1 12
e 1 9
e 1 8
e 2 23
e 2 4
e 2 20
e 2 19
e 3 4
e 3 24
e 3 16
e 4 18
e 4 20
e 4 7
e 4 16
e 5 25
e 5 18
e 5 24
e 5 11
e 5 7
e 6 21
e 7 9
e 7 11
e 7 16
e 7 14
e 7 22
e 8 22
e 8 25
e 8 17
e 8 11
e 8 21
e 8 12
e 8 9
e 9 10
e 9 22
e 9 16
e 9 12
e 10 22
e 10 11
e 10 12
e 10 19
e 10 20
e 11 18
e 11 25
e 11 22
e 11 21
e 11 12
e 11 19
e 12 14
e 12 18
e 12 19
e 13 20
e 13 18
e 13 17
e 14 22
e 14 18
e 15 22
e 16 24
e 17 18
e 18 25
e 20 22
e 21 24
